! B3LYP cc-pVDZ OPT FREQ
%pal nprocs 16 end
*XYZFile 0 1 model.xyz
