%chk=g09BDE
%NProcShared=8
#P bmk/6-31+g ! ASE formatted method and basis
opt(modredun,calcfc) freq

Gaussian input prepared by ASE

0 1
C                 5.5894203680        0.0704942040        0.0003230770
C                 1.3543014720       -0.0040206510        0.0011960546
C                 2.0779452898       -1.2278200974        0.0076893799
C                 3.4695115430       -1.1527913347        0.0071308110
C                 4.1630159478        0.0772621142        0.0003799740
C                 3.4397877971        1.3010594194       -0.0061516225
C                 2.0483040317        1.2261330198       -0.0055816533
H                 4.0641308756       -2.0661542168        0.0119954150
H                 1.4539266445        2.1396634616       -0.0104228761
C                 1.3270679537       -2.5452990314        0.0150853112
H                 0.6497703050       -2.5604445097       -0.8588286942
H                 0.6511304265       -2.5513597636        0.8901688316
C                 2.1691331708       -3.8237441978        0.0210641444
H                 2.8320519701       -3.8415096821       -0.8636222102
H                 2.8335744789       -3.8323436666        0.9047369631
C                 1.3103576657       -5.0944238317        0.0284304469
H                 0.6446637358       -5.0781968253        0.9113852821
H                 0.6429231140       -5.0872209661       -0.8533267034
C                 2.1387189047       -6.3816719443        0.0342211353
H                 2.7909919769       -6.4340470966        0.9230788480
H                 2.7886848942       -6.4435296643       -0.8557164237
C                 4.1905833835        2.6187502644       -0.0134650750
H                 4.8678515132        2.6341142572        0.8604583283
H                 4.8663915892        2.6252550196       -0.8886336512
C                 3.3476188415        3.8966226469       -0.0192064341
H                 2.6831203842        3.9046436580       -0.9028402729
H                 2.6847625604        3.9135493905        0.8655417658
C                 4.2044618636        5.1685647285       -0.0264498938
H                 4.8719085027        5.1623813630        0.8553026897
H                 4.8699546928        5.1536784072       -0.9095753649
C                 3.3738073772        6.4543771167       -0.0318915907
H                 2.7238597569        6.5149518680        0.8581652733
H                 2.7212931728        6.5057600951       -0.9206468005
C                 6.8120270009        0.0559915694       -0.0010759024
H                 1.4953872600       -7.2765318144        0.0398335330
H                 4.0155307846        7.3503929168       -0.0374544352
C                 8.2396003863        0.0356278820       -0.0012112601
C                 8.9415013162       -1.1899206509        0.0038754961
C                10.3359086925       -1.2050563293        0.0038394029
C                11.0563168710       -0.0051323878       -0.0012837502
C                10.3709811019        1.2152451582       -0.0063982825
C                 8.9767958349        1.2403225426       -0.0063935640
H                12.1487190877       -0.0210009948       -0.0012899162
H                10.9278512545        2.1554050734       -0.0104102096
H                 8.3776329945       -2.1246308996        0.0078642613
H                 8.4404076738        2.1910984304       -0.0103559535
H                10.8653753057       -2.1609081843        0.0078404711
C                -0.0713558947        0.0020378654        0.0013572802
C                -1.2952305311        0.0121790155        0.0044355158
C                -6.9560056458       -0.0563130060        0.0040083525
C                -2.7208871006        0.0182281447        0.0042339594
C                -3.4445383652        1.2420280345       -0.0012124149
C                -4.8361042798        1.1669917647       -0.0009884310
C                -5.5296011568       -0.0630731091        0.0043163842
C                -4.8063654853       -1.2868702750        0.0097838236
C                -3.4148822375       -1.2119371621        0.0095899323
H                -5.4307290264        2.0803550384       -0.0050343088
H                -2.8204992800       -2.1254678177        0.0136126211
C                -2.6936659330        2.5595176445       -0.0071172489
H                -2.0176071811        2.5665020146       -0.8820997988
H                -2.0164888562        2.5737450565        0.8669061412
C                -3.5357354925        3.8379648290       -0.0118607227
H                -4.2000596356        3.8474962193       -0.8956119748
H                -4.1987715839        3.8547916926        0.8727560522
C                -2.6769642385        5.1086550278       -0.0177796306
H                -2.0095859902        5.1004895388        0.8640117178
H                -2.0112139240        5.0933963235       -0.9007093310
C                -3.5053296606        6.3959056631       -0.0222182885
H                -4.1553080081        6.4568184993        0.8677753499
H                -4.1575907007        6.4492201006       -0.9110290044
C                -5.5571589136       -2.6045709103        0.0155455535
H                -6.2330549034       -2.6120745009        0.8906387278
H                -6.2343378665       -2.6189411863       -0.8584638039
C                -4.7141920697       -3.8824473038        0.0199234256
H                -4.0512216295       -3.8983429856       -0.8647589545
H                -4.0498072803       -3.8914929906        0.9036322106
C                -5.5710318372       -5.1543994418        0.0255929969
H                -6.2365777582       -5.1405718732        0.9086955704
H                -6.2384255676       -5.1471623728       -0.8561917846
C                -4.7403746128       -6.4402154904        0.0295482643
H                -4.0878586908       -6.4926215615        0.9182421672
H                -4.0904284001       -6.4997628262       -0.8605791845
C                -8.1786099294       -0.0416276219        0.0023502534
H                -2.8620009723        7.2907732607       -0.0268756242
H                -5.3820959812       -7.3362385308        0.0340808106
C                -9.6061835646       -0.0213008106        0.0017106082
C               -10.3081258529        1.2042283545       -0.0020910063
C               -11.7025339831        1.2193162488       -0.0026785210
C               -12.4229024677        0.0193619143        0.0004808322
C               -11.7375252881       -1.2009985544        0.0042428800
C               -10.3433399163       -1.2260286451        0.0048467221
H               -13.5153050041        0.0351921400        0.0000022021
H               -12.2943621238       -2.1411834891        0.0067104939
H                -9.7442924418        2.1389652080       -0.0045466612
H                -9.8069203473       -2.1767904002        0.0077510167
H               -12.2320303479        2.1751552394       -0.0056318063


