%chk=g09BDE
%NProcShared=8
#P bmk/6-31+g ! ASE formatted method and basis
opt(modredun,calcfc) freq

Gaussian input prepared by ASE

0 2
C                 4.2179858980       -0.0771023140        0.0018330696
C                 2.8424332765       -0.0007001241        0.0001023266
C                 2.1345092196        1.2658925863       -0.0039124244
C                 0.7414245355        1.2111800331       -0.0044474423
C                 0.0388163584       -0.0095313918       -0.0008351214
C                 0.7193126460       -1.2543829678        0.0031098289
C                 2.1105633776       -1.2507848389        0.0030980113
H                 0.1754742991        2.1376940677       -0.0075265671
H                 2.6712908140       -2.1784918854        0.0056968081
C                 2.9491519389        2.5492744931       -0.0076556015
H                 3.6143174838        2.5335109132       -0.8835989777
H                 3.6166940983        2.5368921931        0.8665632380
C                 2.1526188592        3.8637897548       -0.0092220035
H                 1.4971279662        3.8997897958       -0.8894666850
H                 1.4994604640        3.9032446759        0.8726116292
C                 3.0643839679        5.1042721325       -0.0129543824
H                 3.7232597918        5.0718259887        0.8647757593
H                 3.7208352804        5.0682972408       -0.8923632756
C                 2.2776434891        6.4264233678       -0.0145605770
H                 1.6366926698        6.5046827141        0.8708596181
H                 1.6338696095        6.5008181064       -0.8982645739
C                -0.1013942018       -2.5396959617        0.0069002194
H                -0.7643147743       -2.5167305678        0.8830257561
H                -0.7656301191       -2.5210807241       -0.8683233074
C                 0.6820876940       -3.8615077417        0.0096201723
H                 1.3358246802       -3.9074423847       -0.8715405260
H                 1.3374532496       -3.9029010665        0.8897916683
C                -0.2390753814       -5.0948310826        0.0137295607
H                -0.8955421169       -5.0535867741        0.8931561764
H                -0.8973427277       -5.0581340508       -0.8645522187
C                 0.5372278272       -6.4232305032        0.0164080040
H                 1.1802819476       -6.5017460777        0.9001749727
H                 1.1780767859       -6.5066363105       -0.8685125935
H                 2.9507752538        7.2898572104       -0.0175169301
H                -0.1423554514       -7.2816372429        0.0196261283
H                -1.0487213992        0.0015459867       -0.0012378095


