! B3LYP cc-pVDZ OPT
%pal nprocs 16 end
*XYZFile 0 4 model.xyz
