! B3LYP EPR-II OPT FREQ
%pal nprocs 16 end
*XYZFile 0 1 opt.xyz
