%chk=g09BDE
%NProcShared=8
#P bmk/6-31+g ! ASE formatted method and basis
opt(modredun,calcfc) freq

Gaussian input prepared by ASE

0 2
C                -4.0999034010        0.0834920336       -0.0183525145
C                -2.8159459127        0.0436614136       -0.0123299212
C                 2.8060080592       -0.0042690586       -0.0085390254
C                -1.4231305196        0.0066811665       -0.0115213763
C                -0.7083025067       -1.2468124786       -0.0139587293
C                 0.6758918199       -1.1946561262       -0.0126835270
C                 1.3909685577        0.0326162532       -0.0093216553
C                 0.6921873211        1.2840400878       -0.0068260192
C                -0.6897138551        1.2348942248       -0.0080824510
H                 1.2597762214       -2.1147223719       -0.0143846560
H                -1.2773648305        2.1523628764       -0.0064173835
C                -1.4826780449       -2.5452701616       -0.0177422300
H                -2.1629559441       -2.5318842264       -0.8880870804
H                -2.1640005456       -2.5363049778        0.8518476548
C                -0.6647727985       -3.8388996299       -0.0204627332
H                -0.0010603208       -3.8638356200       -0.9047050213
H                -0.0025499698       -3.8684716726        0.8647570424
C                -1.5497645281       -5.0915808933       -0.0244857584
H                -2.2167377317       -5.0676468112        0.8566938281
H                -2.2149785584       -5.0632384558       -0.9068635516
C                -0.7472416077       -6.3949472667       -0.0269582540
H                -0.0987846512       -6.4686243989        0.8632629965
H                -0.0967125215       -6.4639630099       -0.9160387850
C                 1.4756096786        2.5808514689       -0.0031054771
H                 2.1507797372        2.5716627058        0.8724849400
H                 2.1519018428        2.5759693680       -0.8778719125
C                 0.6602755777        3.8765156036       -0.0004655515
H                -0.0018134321        3.9047385726       -0.8850189770
H                -0.0034298528        3.9001638387        0.8830069590
C                 1.5455529282        5.1288383499        0.0035806150
H                 2.2103976244        5.1015711733        0.8869230683
H                 2.2123141067        5.1059000136       -0.8784376321
C                 0.7425438177        6.4320442422        0.0059236867
H                 0.0917615535        6.4997527959        0.8945072563
H                 0.0940861870        6.5043946565       -0.8839933565
C                 4.0306646651       -0.0516077329       -0.0099168321
H                -1.4094420153       -7.2757421862       -0.0300435117
H                 1.4042479762        7.3132395797        0.0090959158
C                 5.4533525291       -0.1072260886       -0.0096465016
C                 6.1218351378       -1.3525010422       -0.0121925486
C                 7.5145060579       -1.4014576524       -0.0118527810
C                 8.2622593390       -0.2177365426       -0.0090630784
C                 7.6099235786        1.0212374122       -0.0065904777
C                 6.2177544057        1.0816526702       -0.0068789677
H                 9.3537722925       -0.2609492562       -0.0088329921
H                 8.1914727360        1.9459106608       -0.0044378278
H                 5.5339393029       -2.2721046327       -0.0143693721
H                 5.7039977138        2.0446288911       -0.0049923800
H                 8.0218092707       -2.3688529257       -0.0137914529


