! B3LYP EPRII OPT
%pal nprocs 16 end
*XYZFile 0 2 model.xyz
