%chk=g09BDE
%NProcShared=8
#P bmk/6-31+g ! ASE formatted method and basis
opt(modredun,calcfc) freq

Gaussian input prepared by ASE

0 1
C                 2.8062152877       -0.0088485140       -0.0005178196
C                 2.1168492510        1.2320732228        0.0050173807
C                 0.7165676709        1.1892805381        0.0047390176
C                 0.0182697866       -0.0195955371       -0.0007110840
C                 0.6898384223       -1.2532505155       -0.0060739638
C                 2.0865427390       -1.2243237746       -0.0058751015
H                 0.1489653797        2.1209699773        0.0088745170
H                 2.6601036330       -2.1515387493       -0.0098900133
C                 2.9021433589        2.5295368933        0.0110235942
H                 3.5795404678        2.5284884718       -0.8630904077
H                 3.5792915764        2.5204815867        0.8852810208
C                 2.0926150381        3.8291143697        0.0168311971
H                 1.4295923758        3.8632982621       -0.8674736138
H                 1.4289882636        3.8550994120        0.9009588761
C                 2.9822281934        5.0782376099        0.0229166484
H                 3.6481597534        5.0459428541        0.9052600901
H                 3.6486261842        5.0541425893       -0.8593328649
C                 2.1867024046        6.3860696461        0.0288036094
H                 1.5366756135        6.4554913414        0.9181998630
H                 1.5376928247        6.4641181022       -0.8606196826
C                -0.1161078985       -2.5422643959       -0.0117920663
H                -0.7898738652       -2.5331566979        0.8656742806
H                -0.7879258495       -2.5266686036       -0.8906697051
C                 0.6738438826       -3.8536814679       -0.0157282960
H                 1.3380967226       -3.8863548709       -0.8989977449
H                 1.3361118997       -3.8927481037        0.8687771316
C                -0.2287409454       -5.0931584608       -0.0212567728
H                -0.8957829909       -5.0620846665        0.8604256880
H                -0.8934427954       -5.0559426522       -0.9044692634
C                 0.5543137682       -6.4085910717       -0.0248175975
H                 1.2016483118       -6.4915839132        0.8653319859
H                 1.2045234176       -6.4850447249       -0.9134551986
H                 2.8523631764        7.2645320396        0.0334503679
H                -0.1197873088       -7.2805564136       -0.0291170541
C                 4.2352279316       -0.0495133432       -0.0006817392
C                 5.4573867330       -0.0904724726        0.0018569360
C                 6.8863971962       -0.1311944658        0.0017103743
C                 7.5757032297       -1.3721439583       -0.0052285832
C                 8.9759864078       -1.3294208471       -0.0046784929
C                 9.6743430872       -0.1205874961        0.0024511906
C                 9.0028346806        1.1130919497        0.0094197966
C                 7.6061288363        1.0842363512        0.0088463780
H                 9.5435434273       -2.2611324347       -0.0099037167
H                 7.0326134512        2.0114743873        0.0139700183
C                 6.7903473459       -2.6695606521       -0.0129913534
H                 6.1141930281       -2.6599283538       -0.8880208673
H                 6.1119584924       -2.6690135364        0.8603444887
C                 7.5998091850       -3.9691802465       -0.0186871483
H                 8.2644206344       -3.9947140004       -0.9020843097
H                 8.2618422744       -4.0038916149        0.8663415994
C                 6.7101293406       -5.2182461042       -0.0265992436
H                 6.0422243749       -5.1943743697        0.8545163585
H                 6.0457112261       -5.1856391596       -0.9100711911
C                 7.5055790861       -6.5261281915       -0.0315587866
H                 8.1528528891       -6.6046649578        0.8590853194
H                 8.1573291607       -6.5951480136       -0.9197244723
C                 9.8088489102        2.4020506733        0.0175127442
H                10.4783939719        2.3862194801        0.8981328667
H                10.4848765952        2.3930839243       -0.8581996610
C                 9.0189808581        3.7135225721        0.0197446937
H                 8.3588468448        3.7527038041       -0.8663556212
H                 8.3526063694        3.7461746749        0.9014089392
C                 9.9216393801        4.9529329308        0.0277016097
H                10.5841437931        4.9154973805        0.9125549195
H                10.5908644906        4.9219758871       -0.8523283061
C                 9.1386768290        6.2684239743        0.0295813322
H                 8.4860416363        6.3445962818        0.9164629715
H                 8.4937885587        6.3517966039       -0.8623068281
H                 6.8398704514       -7.4045435029       -0.0379431741
H                 9.8128291000        7.1403363323        0.0360462132
H                10.7685123562       -0.1362007897        0.0026312807
H                -1.0759002832       -0.0040366701       -0.0007229539


