! B3LYP EPR-II FREQ
%pal nprocs 16 end
*XYZFile 0 4 opt.xyz
