%chk=g09BDE
%NProcShared=8
#P bmk/6-31+g ! ASE formatted method and basis
opt(modredun,calcfc) freq

Gaussian input prepared by ASE

0 2
C                -2.8323722864        0.0202933218       -0.0126737822
C                 2.8159483222       -0.0033597852       -0.0088745622
C                -1.4204329548        0.0024527399       -0.0116507405
C                -0.7093749564       -1.2487185799       -0.0143166274
C                 0.6762471510       -1.1903468290       -0.0130982067
C                 1.3959901574        0.0320130221       -0.0095471022
C                 0.6909809454        1.2745026734       -0.0067934780
C                -0.6955523001        1.2346430745       -0.0079229109
H                 1.2555234927       -2.1143196878       -0.0150155573
H                -1.2740638435        2.1576300100       -0.0059699522
C                -1.4898954777       -2.5448723883       -0.0183038691
H                -2.1650193831       -2.5348902028       -0.8948877351
H                -2.1669654087       -2.5390834660        0.8568135587
C                -0.6785749032       -3.8431492748       -0.0205031654
H                -0.0146645234       -3.8681417144       -0.9041506426
H                -0.0167869374       -3.8724128012        0.8646083250
C                -1.5651091779       -5.0944755589       -0.0245983103
H                -2.2323109244       -5.0706510005        0.8568941021
H                -2.2300175574       -5.0665196386       -0.9077034900
C                -0.7646069939       -6.3992717982       -0.0266300592
H                -0.1162229947       -6.4728956116        0.8635341457
H                -0.1136395998       -6.4685329115       -0.9152561683
C                 1.4712729259        2.5753230176       -0.0028412596
H                 2.1467689052        2.5668875740        0.8724216186
H                 2.1481530700        2.5713468375       -0.8770688040
C                 0.6586431783        3.8725124747       -0.0001922278
H                -0.0035078458        3.9028386882       -0.8850229823
H                -0.0051902465        3.8982291922        0.8835186498
C                 1.5454795597        5.1237707726        0.0039142764
H                 2.2105626290        5.0953433299        0.8869471655
H                 2.2124672047        5.0997648865       -0.8778105394
C                 0.7459107378        6.4291672522        0.0063426342
H                 0.0951380110        6.4986534576        0.8950682268
H                 0.0973649209        6.5033357055       -0.8836329806
C                 4.0397028281       -0.0470944950       -0.0100506593
H                -1.4274022094       -7.2798147190       -0.0297571621
H                 1.4091739924        7.3093943168        0.0094955825
C                 5.4648534525       -0.0998720641       -0.0097450896
C                 6.1390753809       -1.3416259758       -0.0111664198
C                 7.5325269958       -1.3884747093       -0.0108649082
C                 8.2804251073       -0.2052721049       -0.0091853098
C                 7.6231503415        1.0306779154       -0.0078078565
C                 6.2301363045        1.0879904541       -0.0081017266
H                 9.3720958967       -0.2463691415       -0.0089699241
H                 8.2014731782        1.9578010056       -0.0065297421
H                 5.5540322362       -2.2632497773       -0.0124629958
H                 5.7157916947        2.0508509380       -0.0070837540
H                 8.0400956945       -2.3561420749       -0.0119430545


